Costo de la solución:
 2453,675823887 

1	1	494,35	199	0	16	28	14	55	49	60	52	64	56	53	65	61	25	21	74	70	66		0
1	2	333,92	200	0	48	47	41	42	89	62	58	50	43	51	38	44	37	45	63		0
1	3	355,863	198	0	78	34	19	31	9	6	7	26	22	20	23	39	108	118	85	30	27	35	32	17	24	36	33		0
1	4	316,624	198	0	102	83	109	98	84	93	96	87	99	105	111	86	95	40	57	54	59		0
1	5	413,305	200	0	116	103	107	81	88	90	91	46	8	104	117	13	10	97	12	3	5	29		0
1	6	260,677	200	0	68	76	4	15	11	115	94	72	75	18	112	114	79	77	80		0
1	7	278,933	180	0	120	113	92	82	119	100	106	110	1	2	69	67	101	73	71		0
